(set-logic QF_UF)
(declare-sort U 0)
(declare-sort I 0)
(declare-fun op (I I) I)
(declare-fun e4 () I)
(declare-fun e3 () I)
(declare-fun e2 () I)
(declare-fun e1 () I)
(declare-fun e0 () I)
(assert (not (not (= (op e0 (op e0 e0)) e0))))
(assert (and (not (= (op e0 (op e0 e0)) e0)) (not (= (op e1 (op e1 e1)) e1))))
(check-sat)
(exit)
